rcpsp/heur_output_bi_constraints/Log=5/heurj60.txt
encoding rcpsp/j60.sm/j6017_3.sm nv: 136136 nc: 366604 enctime: 4.49
encoding rcpsp/j60.sm/j6017_3.sm nv: 41140 nc: 108794 enctime: 0.71
c File: j6017_3.smnaivebi5.wcnf
c optimal
c final solution cost: 89
c CPU time: 10.850695
s OPTIMUM FOUND

c File: j6017_3.smbi5.wcnf
c optimal
c final solution cost: 89
c CPU time: 0.295803
s OPTIMUM FOUND


rcpsp/heur_output_bi_constraints/Log=5/heurj60.txt
encoding rcpsp/j60.sm/j6017_4.sm nv: 113526 nc: 286993 enctime: 3.17
encoding rcpsp/j60.sm/j6017_4.sm nv: 28567 nc: 70588 enctime: 0.34
c File: j6017_4.smnaivebi5.wcnf
c optimal
c final solution cost: 70
c CPU time: 0.906774
s OPTIMUM FOUND

c File: j6017_4.smbi5.wcnf
c optimal
c final solution cost: 70
c CPU time: 0.093226
s OPTIMUM FOUND


rcpsp/heur_output_bi_constraints/Log=5/heurj60.txt
encoding rcpsp/j60.sm/j6017_5.sm nv: 115368 nc: 276118 enctime: 2.81
encoding rcpsp/j60.sm/j6017_5.sm nv: 30514 nc: 71697 enctime: 0.45
c File: j6017_5.smnaivebi5.wcnf
c optimal
c final solution cost: 55
c CPU time: 1.296023
s OPTIMUM FOUND

c File: j6017_5.smbi5.wcnf
c optimal
c final solution cost: 55
c CPU time: 0.192605
s OPTIMUM FOUND


rcpsp/heur_output_bi_constraints/Log=5/heurj60.txt
encoding rcpsp/j60.sm/j6017_6.sm nv: 123968 nc: 303976 enctime: 3.23
encoding rcpsp/j60.sm/j6017_6.sm nv: 40768 nc: 98576 enctime: 0.63
c File: j6017_6.smnaivebi5.wcnf
c optimal
c final solution cost: 68
c CPU time: 0.902169
s OPTIMUM FOUND

c File: j6017_6.smbi5.wcnf
c optimal
c final solution cost: 68
c CPU time: 0.154942
s OPTIMUM FOUND


rcpsp/heur_output_bi_constraints/Log=5/heurj60.txt
encoding rcpsp/j60.sm/j6017_7.sm nv: 128880 nc: 346332 enctime: 4.14
encoding rcpsp/j60.sm/j6017_7.sm nv: 34920 nc: 91857 enctime: 0.60
c File: j6017_7.smnaivebi5.wcnf
c optimal
c final solution cost: 82
c CPU time: 1.669162
s OPTIMUM FOUND

c File: j6017_7.smbi5.wcnf
c optimal
c final solution cost: 82
c CPU time: 0.184981
s OPTIMUM FOUND


rcpsp/heur_output_bi_constraints/Log=5/heurj60.txt
encoding rcpsp/j60.sm/j6017_8.sm nv: 119160 nc: 315310 enctime: 3.66
encoding rcpsp/j60.sm/j6017_8.sm nv: 37080 nc: 96430 enctime: 0.65
c File: j6017_8.smnaivebi5.wcnf
c optimal
c final solution cost: 77
c CPU time: 3.168679
s OPTIMUM FOUND

c File: j6017_8.smbi5.wcnf
c optimal
c final solution cost: 77
c CPU time: 1.397700
s OPTIMUM FOUND


rcpsp/heur_output_bi_constraints/Log=5/heurj60.txt
encoding rcpsp/j60.sm/j6017_9.sm nv: 112081 nc: 296714 enctime: 3.49
encoding rcpsp/j60.sm/j6017_9.sm nv: 29148 nc: 75400 enctime: 0.51
c File: j6017_9.smnaivebi5.wcnf
c optimal
c final solution cost: 72
c CPU time: 1.180991
s OPTIMUM FOUND

c File: j6017_9.smbi5.wcnf
c optimal
c final solution cost: 72
c CPU time: 0.148895
s OPTIMUM FOUND


rcpsp/heur_output_bi_constraints/Log=5/heurj60.txt
encoding rcpsp/j60.sm/j601_7.sm nv: 122436 nc: 316630 enctime: 3.47
encoding rcpsp/j60.sm/j601_7.sm nv: 27208 nc: 68452 enctime: 0.44
c File: j601_7.smnaivebi5.wcnf
c optimal
c final solution cost: 68
c CPU time: 2.199647
s OPTIMUM FOUND

c File: j601_7.smbi5.wcnf
c optimal
c final solution cost: 68
c CPU time: 0.293476
s OPTIMUM FOUND


rcpsp/heur_output_bi_constraints/Log=5/heurj60.txt
encoding rcpsp/j60.sm/j6018_10.sm nv: 173568 nc: 446957 enctime: 5.24
encoding rcpsp/j60.sm/j6018_10.sm nv: 49720 nc: 125829 enctime: 0.84
c File: j6018_10.smnaivebi5.wcnf
c optimal
c final solution cost: 85
c CPU time: 2.077360
s OPTIMUM FOUND

c File: j6018_10.smbi5.wcnf
c optimal
c final solution cost: 85
c CPU time: 0.249387
s OPTIMUM FOUND


rcpsp/heur_output_bi_constraints/Log=5/heurj60.txt
encoding rcpsp/j60.sm/j6018_1.sm nv: 139527 nc: 350095 enctime: 3.92
encoding rcpsp/j60.sm/j6018_1.sm nv: 39805 nc: 98053 enctime: 0.80
c File: j6018_1.smnaivebi5.wcnf
c optimal
c final solution cost: 74
c CPU time: 1.024142
s OPTIMUM FOUND

c File: j6018_1.smbi5.wcnf
c optimal
c final solution cost: 74
c CPU time: 0.138596
s OPTIMUM FOUND


rcpsp/heur_output_bi_constraints/Log=5/heurj60.txt
encoding rcpsp/j60.sm/j6018_2.sm nv: 167670 nc: 412331 enctime: 4.65
encoding rcpsp/j60.sm/j6018_2.sm nv: 34506 nc: 82709 enctime: 0.56
c File: j6018_2.smnaivebi5.wcnf
c optimal
c final solution cost: 58
c CPU time: 1.689005
s OPTIMUM FOUND

c File: j6018_2.smbi5.wcnf
c optimal
c final solution cost: 58
c CPU time: 0.168783
s OPTIMUM FOUND


rcpsp/heur_output_bi_constraints/Log=5/heurj60.txt
encoding rcpsp/j60.sm/j6018_3.sm nv: 138993 nc: 343749 enctime: 3.81
encoding rcpsp/j60.sm/j6018_3.sm nv: 33341 nc: 80717 enctime: 0.38
c File: j6018_3.smnaivebi5.wcnf
c optimal
c final solution cost: 66
c CPU time: 1.003948
s OPTIMUM FOUND

c File: j6018_3.smbi5.wcnf
c optimal
c final solution cost: 66
c CPU time: 0.111395
s OPTIMUM FOUND


rcpsp/heur_output_bi_constraints/Log=5/heurj60.txt
encoding rcpsp/j60.sm/j6018_4.sm nv: 171308 nc: 440053 enctime: 5.12
encoding rcpsp/j60.sm/j6018_4.sm nv: 37064 nc: 92860 enctime: 0.60
c File: j6018_4.smnaivebi5.wcnf
c optimal
c final solution cost: 65
c CPU time: 1.437487
s OPTIMUM FOUND

c File: j6018_4.smbi5.wcnf
c optimal
c final solution cost: 65
c CPU time: 0.232269
s OPTIMUM FOUND


rcpsp/heur_output_bi_constraints/Log=5/heurj60.txt
encoding rcpsp/j60.sm/j6018_5.sm nv: 141036 nc: 347661 enctime: 3.94
encoding rcpsp/j60.sm/j6018_5.sm nv: 39858 nc: 96564 enctime: 0.64
c File: j6018_5.smnaivebi5.wcnf
c optimal
c final solution cost: 72
c CPU time: 0.958693
s OPTIMUM FOUND

c File: j6018_5.smbi5.wcnf
c optimal
c final solution cost: 72
c CPU time: 0.118610
s OPTIMUM FOUND


rcpsp/heur_output_bi_constraints/Log=5/heurj60.txt
encoding rcpsp/j60.sm/j6018_6.sm nv: 155685 nc: 373301 enctime: 3.98
encoding rcpsp/j60.sm/j6018_6.sm nv: 34435 nc: 80801 enctime: 0.52
c File: j6018_6.smnaivebi5.wcnf
c optimal
c final solution cost: 61
c CPU time: 0.911979
s OPTIMUM FOUND

c File: j6018_6.smbi5.wcnf
c optimal
c final solution cost: 61
c CPU time: 0.089105
s OPTIMUM FOUND


rcpsp/heur_output_bi_constraints/Log=5/heurj60.txt
encoding rcpsp/j60.sm/j6018_7.sm nv: 145820 nc: 353116 enctime: 3.82
encoding rcpsp/j60.sm/j6018_7.sm nv: 57040 nc: 136763 enctime: 0.91
c File: j6018_7.smnaivebi5.wcnf
c optimal
c final solution cost: 85
c CPU time: 1.093019
s OPTIMUM FOUND

c File: j6018_7.smbi5.wcnf
c optimal
c final solution cost: 85
c CPU time: 0.264166
s OPTIMUM FOUND


rcpsp/heur_output_bi_constraints/Log=5/heurj60.txt
encoding rcpsp/j60.sm/j6018_8.sm nv: 151970 nc: 377547 enctime: 4.18
encoding rcpsp/j60.sm/j6018_8.sm nv: 33215 nc: 80529 enctime: 0.53
c File: j6018_8.smnaivebi5.wcnf
c optimal
c final solution cost: 64
c CPU time: 1.013962
s OPTIMUM FOUND

c File: j6018_8.smbi5.wcnf
c optimal
c final solution cost: 64
c CPU time: 0.117892
s OPTIMUM FOUND


rcpsp/heur_output_bi_constraints/Log=5/heurj60.txt
encoding rcpsp/j60.sm/j6018_9.sm nv: 138689 nc: 347361 enctime: 3.86
encoding rcpsp/j60.sm/j6018_9.sm nv: 29749 nc: 72541 enctime: 0.48
c File: j6018_9.smnaivebi5.wcnf
c optimal
c final solution cost: 67
c CPU time: 0.978184
s OPTIMUM FOUND

c File: j6018_9.smbi5.wcnf
c optimal
c final solution cost: 67
c CPU time: 0.093949
s OPTIMUM FOUND


rcpsp/heur_output_bi_constraints/Log=5/heurj60.txt
encoding rcpsp/j60.sm/j601_8.sm nv: 135772 nc: 356911 enctime: 3.99
encoding rcpsp/j60.sm/j601_8.sm nv: 33570 nc: 86199 enctime: 0.54
c File: j601_8.smnaivebi5.wcnf
c optimal
c final solution cost: 67
c CPU time: 2.248805
s OPTIMUM FOUND

c File: j601_8.smbi5.wcnf
c optimal
c final solution cost: 67
c CPU time: 0.369314
s OPTIMUM FOUND


rcpsp/heur_output_bi_constraints/Log=5/heurj60.txt
encoding rcpsp/j60.sm/j6019_10.sm nv: 188720 nc: 448394 enctime: 4.72
encoding rcpsp/j60.sm/j6019_10.sm nv: 45360 nc: 105866 enctime: 0.67
c File: j6019_10.smnaivebi5.wcnf
c optimal
c final solution cost: 69
c CPU time: 1.026668
s OPTIMUM FOUND

c File: j6019_10.smbi5.wcnf
c optimal
c final solution cost: 69
c CPU time: 0.115212
s OPTIMUM FOUND


rcpsp/heur_output_bi_constraints/Log=5/heurj60.txt
encoding rcpsp/j60.sm/j6019_1.sm nv: 179958 nc: 427505 enctime: 4.62
encoding rcpsp/j60.sm/j6019_1.sm nv: 34710 nc: 80433 enctime: 0.53
c File: j6019_1.smnaivebi5.wcnf
c optimal
c final solution cost: 56
c CPU time: 1.690947
s OPTIMUM FOUND

c File: j6019_1.smbi5.wcnf
c optimal
c final solution cost: 56
c CPU time: 0.110066
s OPTIMUM FOUND


rcpsp/heur_output_bi_constraints/Log=5/heurj60.txt
encoding rcpsp/j60.sm/j6019_2.sm nv: 188123 nc: 471599 enctime: 5.41
encoding rcpsp/j60.sm/j6019_2.sm nv: 43413 nc: 106489 enctime: 0.70
c File: j6019_2.smnaivebi5.wcnf
c optimal
c final solution cost: 77
c CPU time: 1.271444
s OPTIMUM FOUND

c File: j6019_2.smbi5.wcnf
c optimal
c final solution cost: 77
c CPU time: 0.124077
s OPTIMUM FOUND


rcpsp/heur_output_bi_constraints/Log=5/heurj60.txt
encoding rcpsp/j60.sm/j6019_3.sm nv: 163917 nc: 404822 enctime: 4.54
encoding rcpsp/j60.sm/j6019_3.sm nv: 38294 nc: 92513 enctime: 0.61
c File: j6019_3.smnaivebi5.wcnf
c optimal
c final solution cost: 81
c CPU time: 1.068094
s OPTIMUM FOUND

c File: j6019_3.smbi5.wcnf
c optimal
c final solution cost: 81
c CPU time: 0.097431
s OPTIMUM FOUND


rcpsp/heur_output_bi_constraints/Log=5/heurj60.txt
encoding rcpsp/j60.sm/j6019_4.sm nv: 186296 nc: 431153 enctime: 4.41
encoding rcpsp/j60.sm/j6019_4.sm nv: 39712 nc: 90044 enctime: 0.56
c File: j6019_4.smnaivebi5.wcnf
c optimal
c final solution cost: 65
c CPU time: 1.078512
s OPTIMUM FOUND

c File: j6019_4.smbi5.wcnf
c optimal
c final solution cost: 65
c CPU time: 0.107771
s OPTIMUM FOUND


rcpsp/heur_output_bi_constraints/Log=5/heurj60.txt
encoding rcpsp/j60.sm/j6019_5.sm nv: 157740 nc: 385245 enctime: 4.14
encoding rcpsp/j60.sm/j6019_5.sm nv: 35372 nc: 84445 enctime: 0.54
c File: j6019_5.smnaivebi5.wcnf
c optimal
c final solution cost: 64
c CPU time: 0.965133
s OPTIMUM FOUND

c File: j6019_5.smbi5.wcnf
c optimal
c final solution cost: 64
c CPU time: 0.104782
s OPTIMUM FOUND


rcpsp/heur_output_bi_constraints/Log=5/heurj60.txt
encoding rcpsp/j60.sm/j6019_6.sm nv: 168756 nc: 411777 enctime: 4.48
encoding rcpsp/j60.sm/j6019_6.sm nv: 35916 nc: 85617 enctime: 0.55
c File: j6019_6.smnaivebi5.wcnf
c optimal
c final solution cost: 65
c CPU time: 1.124549
s OPTIMUM FOUND

c File: j6019_6.smbi5.wcnf
c optimal
c final solution cost: 65
c CPU time: 0.106433
s OPTIMUM FOUND


rcpsp/heur_output_bi_constraints/Log=5/heurj60.txt
encoding rcpsp/j60.sm/j6019_7.sm nv: 175380 nc: 406687 enctime: 4.07
encoding rcpsp/j60.sm/j6019_7.sm nv: 32190 nc: 72835 enctime: 0.47
c File: j6019_7.smnaivebi5.wcnf
c optimal
c final solution cost: 54
c CPU time: 1.194701
s OPTIMUM FOUND

c File: j6019_7.smbi5.wcnf
c optimal
c final solution cost: 54
c CPU time: 0.093417
s OPTIMUM FOUND


rcpsp/heur_output_bi_constraints/Log=5/heurj60.txt
encoding rcpsp/j60.sm/j6019_8.sm nv: 154380 nc: 377040 enctime: 4.11
encoding rcpsp/j60.sm/j6019_8.sm nv: 37665 nc: 90147 enctime: 0.57
c File: j6019_8.smnaivebi5.wcnf
c optimal
c final solution cost: 67
c CPU time: 1.163869
s OPTIMUM FOUND

c File: j6019_8.smbi5.wcnf
c optimal
c final solution cost: 67
c CPU time: 0.155968
s OPTIMUM FOUND


rcpsp/heur_output_bi_constraints/Log=5/heurj60.txt
encoding rcpsp/j60.sm/j6019_9.sm nv: 177500 nc: 431408 enctime: 4.69
encoding rcpsp/j60.sm/j6019_9.sm nv: 36000 nc: 85299 enctime: 0.56
c File: j6019_9.smnaivebi5.wcnf
c optimal
c final solution cost: 67
c CPU time: 1.156231
s OPTIMUM FOUND

c File: j6019_9.smbi5.wcnf
c optimal
c final solution cost: 67
c CPU time: 0.090287
s OPTIMUM FOUND


rcpsp/heur_output_bi_constraints/Log=5/heurj60.txt
encoding rcpsp/j60.sm/j601_9.sm nv: 128625 nc: 331964 enctime: 3.60
encoding rcpsp/j60.sm/j601_9.sm nv: 34125 nc: 86264 enctime: 0.56
c File: j601_9.smnaivebi5.wcnf
c optimal
c final solution cost: 72
c CPU time: 2.344342
s OPTIMUM FOUND

c File: j601_9.smbi5.wcnf
c optimal
c final solution cost: 72
c CPU time: 0.348677
s OPTIMUM FOUND


rcpsp/heur_output_bi_constraints/Log=5/heurj60.txt
encoding rcpsp/j60.sm/j6020_10.sm nv: 181485 nc: 425343 enctime: 4.40
encoding rcpsp/j60.sm/j6020_10.sm nv: 41625 nc: 95727 enctime: 0.60
c File: j6020_10.smnaivebi5.wcnf
c optimal
c final solution cost: 70
c CPU time: 1.001745
s OPTIMUM FOUND

c File: j6020_10.smbi5.wcnf
c optimal
c final solution cost: 70
c CPU time: 0.105282
s OPTIMUM FOUND


rcpsp/heur_output_bi_constraints/Log=5/heurj60.txt
encoding rcpsp/j60.sm/j6020_1.sm nv: 205800 nc: 476931 enctime: 4.95
encoding rcpsp/j60.sm/j6020_1.sm nv: 37800 nc: 85491 enctime: 0.55
c File: j6020_1.smnaivebi5.wcnf
c optimal
c final solution cost: 60
c CPU time: 1.169057
s OPTIMUM FOUND

c File: j6020_1.smbi5.wcnf
c optimal
c final solution cost: 60
c CPU time: 0.098317
s OPTIMUM FOUND


rcpsp/heur_output_bi_constraints/Log=5/heurj60.txt
encoding rcpsp/j60.sm/j6020_2.sm nv: 136697 nc: 321771 enctime: 3.30
encoding rcpsp/j60.sm/j6020_2.sm nv: 39732 nc: 92171 enctime: 0.58
c File: j6020_2.smnaivebi5.wcnf
c optimal
c final solution cost: 78
c CPU time: 0.745185
s OPTIMUM FOUND

c File: j6020_2.smbi5.wcnf
c optimal
c final solution cost: 78
c CPU time: 0.102011
s OPTIMUM FOUND


rcpsp/heur_output_bi_constraints/Log=5/heurj60.txt
encoding rcpsp/j60.sm/j6020_3.sm nv: 226501 nc: 521095 enctime: 5.23
encoding rcpsp/j60.sm/j6020_3.sm nv: 46728 nc: 105318 enctime: 0.66
c File: j6020_3.smnaivebi5.wcnf
c optimal
c final solution cost: 66
c CPU time: 1.170934
s OPTIMUM FOUND

c File: j6020_3.smbi5.wcnf
c optimal
c final solution cost: 66
c CPU time: 0.111450
s OPTIMUM FOUND


rcpsp/heur_output_bi_constraints/Log=5/heurj60.txt
encoding rcpsp/j60.sm/j6020_4.sm nv: 221028 nc: 504246 enctime: 5.11
encoding rcpsp/j60.sm/j6020_4.sm nv: 57376 nc: 129001 enctime: 0.80
c File: j6020_4.smnaivebi5.wcnf
c optimal
c final solution cost: 86
c CPU time: 1.083238
s OPTIMUM FOUND

c File: j6020_4.smbi5.wcnf
c optimal
c final solution cost: 86
c CPU time: 0.136887
s OPTIMUM FOUND


rcpsp/heur_output_bi_constraints/Log=5/heurj60.txt
encoding rcpsp/j60.sm/j6020_5.sm nv: 187824 nc: 446294 enctime: 4.76
encoding rcpsp/j60.sm/j6020_5.sm nv: 36036 nc: 83504 enctime: 0.55
c File: j6020_5.smnaivebi5.wcnf
c optimal
c final solution cost: 60
c CPU time: 1.043979
s OPTIMUM FOUND

c File: j6020_5.smbi5.wcnf
c optimal
c final solution cost: 60
c CPU time: 0.082015
s OPTIMUM FOUND


rcpsp/heur_output_bi_constraints/Log=5/heurj60.txt
encoding rcpsp/j60.sm/j6020_6.sm nv: 210858 nc: 489566 enctime: 5.01
encoding rcpsp/j60.sm/j6020_6.sm nv: 63444 nc: 145442 enctime: 0.90
c File: j6020_6.smnaivebi5.wcnf
c optimal
c final solution cost: 72
c CPU time: 1.290646
s OPTIMUM FOUND

c File: j6020_6.smbi5.wcnf
c optimal
c final solution cost: 72
c CPU time: 0.193523
s OPTIMUM FOUND


rcpsp/heur_output_bi_constraints/Log=5/heurj60.txt
encoding rcpsp/j60.sm/j6020_7.sm nv: 209902 nc: 484849 enctime: 4.81
encoding rcpsp/j60.sm/j6020_7.sm nv: 39556 nc: 89422 enctime: 0.57
c File: j6020_7.smnaivebi5.wcnf
c optimal
c final solution cost: 61
c CPU time: 1.051772
s OPTIMUM FOUND

c File: j6020_7.smbi5.wcnf
c optimal
c final solution cost: 61
c CPU time: 0.084063
s OPTIMUM FOUND


rcpsp/heur_output_bi_constraints/Log=5/heurj60.txt
encoding rcpsp/j60.sm/j6020_8.sm nv: 178856 nc: 411970 enctime: 4.21
encoding rcpsp/j60.sm/j6020_8.sm nv: 40752 nc: 92086 enctime: 0.59
c File: j6020_8.smnaivebi5.wcnf
c optimal
c final solution cost: 65
c CPU time: 0.948792
s OPTIMUM FOUND

c File: j6020_8.smbi5.wcnf
c optimal
c final solution cost: 65
c CPU time: 0.096772
s OPTIMUM FOUND


rcpsp/heur_output_bi_constraints/Log=5/heurj60.txt
encoding rcpsp/j60.sm/j6020_9.sm nv: 180411 nc: 444681 enctime: 5.09
encoding rcpsp/j60.sm/j6020_9.sm nv: 36778 nc: 88344 enctime: 0.40
c File: j6020_9.smnaivebi5.wcnf
c optimal
c final solution cost: 69
c CPU time: 1.109604
s OPTIMUM FOUND

c File: j6020_9.smbi5.wcnf
c optimal
c final solution cost: 69
c CPU time: 0.093270
s OPTIMUM FOUND


